(set-info :source |printed by MathSAT|)
(declare-fun call_illinois.ite28 () Int)
(declare-fun call_illinois.ite47 () Int)
(declare-fun call_illinois.ite20 () Int)
(declare-fun call_illinois.ite18 () Int)
(declare-fun call_illinois.ite11 () Int)
(declare-fun call_illinois.ite23 () Int)
(declare-fun param_e9 () Bool)
(declare-fun call_illinois.ite9 () Int)
(declare-fun call_illinois.ite33 () Int)
(declare-fun call_illinois.ite35 () Int)
(declare-fun env () Bool)
(declare-fun call_illinois.ite14 () Int)
(declare-fun call_illinois.ite24 () Int)
(declare-fun call_illinois.ite46 () Int)
(declare-fun call_Sofar.Sofar () Bool)
(declare-fun call_illinois.ite13 () Int)
(declare-fun param_e4 () Bool)
(declare-fun exclusive () Int)
(declare-fun call_illinois.g5 () Bool)
(declare-fun param_init_invalid () Int)
(declare-fun call_illinois.ite19 () Int)
(declare-fun call_illinois.flby2 () Int)
(declare-fun call_illinois.ite39 () Int)
(declare-fun call_illinois.flby3 () Int)
(declare-fun param_e3 () Bool)
(declare-fun param_e7 () Bool)
(declare-fun call_illinois.invalid () Int)
(declare-fun call_excludes9.excludes () Bool)
(declare-fun call_illinois.ite42 () Int)
(declare-fun call_Sofar.flby () Bool)
(declare-fun call_illinois.ite40 () Int)
(declare-fun call_illinois.g6 () Bool)
(declare-fun _OK_ () Bool)
(declare-fun call_illinois.flby4 () Int)
(declare-fun call_illinois.ite45 () Int)
(declare-fun call_illinois.ite38 () Int)
(declare-fun call_illinois.ite12 () Int)
(declare-fun call_illinois.ite2 () Int)
(declare-fun invalid () Int)
(declare-fun call_illinois.ite16 () Int)
(declare-fun call_illinois.ite41 () Int)
(declare-fun param_e8 () Bool)
(declare-fun param_e5 () Bool)
(declare-fun call_illinois.ite27 () Int)
(declare-fun call_illinois.ite21 () Int)
(declare-fun call_illinois.ite15 () Int)
(declare-fun call_illinois.ite4 () Int)
(declare-fun call_illinois.ite10 () Int)
(declare-fun call_illinois.ite5 () Int)
(declare-fun call_illinois.ite30 () Int)
(declare-fun call_illinois.flby () Int)
(declare-fun call_illinois.ite31 () Int)
(declare-fun call_illinois.ite3 () Int)
(declare-fun call_illinois.ite () Int)
(declare-fun call_illinois.exclusive () Int)
(declare-fun call_illinois.ite37 () Int)
(declare-fun call_illinois.ite8 () Int)
(declare-fun flby () Bool)
(declare-fun shared () Int)
(declare-fun call_illinois.ite17 () Int)
(declare-fun call_illinois.ite34 () Int)
(declare-fun call_illinois.ite32 () Int)
(declare-fun call_illinois.ite36 () Int)
(declare-fun call_illinois.ite25 () Int)
(declare-fun call_illinois.ite22 () Int)
(declare-fun call_illinois.ite43 () Int)
(declare-fun param_e6 () Bool)
(declare-fun param_e1 () Bool)
(declare-fun call_illinois.shared () Int)
(declare-fun call_illinois.ite26 () Int)
(declare-fun dirty () Int)
(declare-fun call_illinois.ite6 () Int)
(declare-fun call_illinois.ite7 () Int)
(declare-fun param_e2 () Bool)
(declare-fun call_illinois.dirty () Int)
(declare-fun call_illinois.ite29 () Int)
(declare-fun call_illinois.ite44 () Int)
(define-fun .def_1262 () Bool (= call_Sofar.flby call_Sofar.Sofar))
(define-fun .def_1057 () Bool (not param_e2))
(define-fun .def_1038 () Bool (not param_e1))
(define-fun .def_1199 () Bool (and .def_1038 .def_1057))
(define-fun .def_1085 () Bool (not param_e3))
(define-fun .def_1200 () Bool (and .def_1085 .def_1199))
(define-fun .def_1111 () Bool (not param_e4))
(define-fun .def_1201 () Bool (and .def_1111 .def_1200))
(define-fun .def_1129 () Bool (not param_e5))
(define-fun .def_1202 () Bool (and .def_1129 .def_1201))
(define-fun .def_1154 () Bool (not param_e6))
(define-fun .def_1203 () Bool (and .def_1154 .def_1202))
(define-fun .def_950 () Bool (not param_e7))
(define-fun .def_1204 () Bool (and .def_950 .def_1203))
(define-fun .def_957 () Bool (not param_e8))
(define-fun .def_1205 () Bool (and .def_957 .def_1204))
(define-fun .def_937 () Bool (not param_e9))
(define-fun .def_1250 () Bool (and .def_937 .def_1205))
(define-fun .def_1242 () Bool (and param_e1 .def_1057))
(define-fun .def_1243 () Bool (and .def_1085 .def_1242))
(define-fun .def_1244 () Bool (and .def_1111 .def_1243))
(define-fun .def_1245 () Bool (and .def_1129 .def_1244))
(define-fun .def_1246 () Bool (and .def_1154 .def_1245))
(define-fun .def_1247 () Bool (and .def_950 .def_1246))
(define-fun .def_1248 () Bool (and .def_957 .def_1247))
(define-fun .def_1249 () Bool (and .def_937 .def_1248))
(define-fun .def_1251 () Bool (or .def_1249 .def_1250))
(define-fun .def_1234 () Bool (and .def_1038 param_e2))
(define-fun .def_1235 () Bool (and .def_1085 .def_1234))
(define-fun .def_1236 () Bool (and .def_1111 .def_1235))
(define-fun .def_1237 () Bool (and .def_1129 .def_1236))
(define-fun .def_1238 () Bool (and .def_1154 .def_1237))
(define-fun .def_1239 () Bool (and .def_950 .def_1238))
(define-fun .def_1240 () Bool (and .def_957 .def_1239))
(define-fun .def_1241 () Bool (and .def_937 .def_1240))
(define-fun .def_1252 () Bool (or .def_1241 .def_1251))
(define-fun .def_1227 () Bool (and param_e3 .def_1199))
(define-fun .def_1228 () Bool (and .def_1111 .def_1227))
(define-fun .def_1229 () Bool (and .def_1129 .def_1228))
(define-fun .def_1230 () Bool (and .def_1154 .def_1229))
(define-fun .def_1231 () Bool (and .def_950 .def_1230))
(define-fun .def_1232 () Bool (and .def_957 .def_1231))
(define-fun .def_1233 () Bool (and .def_937 .def_1232))
(define-fun .def_1253 () Bool (or .def_1233 .def_1252))
(define-fun .def_1221 () Bool (and param_e4 .def_1200))
(define-fun .def_1222 () Bool (and .def_1129 .def_1221))
(define-fun .def_1223 () Bool (and .def_1154 .def_1222))
(define-fun .def_1224 () Bool (and .def_950 .def_1223))
(define-fun .def_1225 () Bool (and .def_957 .def_1224))
(define-fun .def_1226 () Bool (and .def_937 .def_1225))
(define-fun .def_1254 () Bool (or .def_1226 .def_1253))
(define-fun .def_1216 () Bool (and param_e5 .def_1201))
(define-fun .def_1217 () Bool (and .def_1154 .def_1216))
(define-fun .def_1218 () Bool (and .def_950 .def_1217))
(define-fun .def_1219 () Bool (and .def_957 .def_1218))
(define-fun .def_1220 () Bool (and .def_937 .def_1219))
(define-fun .def_1255 () Bool (or .def_1220 .def_1254))
(define-fun .def_1212 () Bool (and param_e6 .def_1202))
(define-fun .def_1213 () Bool (and .def_950 .def_1212))
(define-fun .def_1214 () Bool (and .def_957 .def_1213))
(define-fun .def_1215 () Bool (and .def_937 .def_1214))
(define-fun .def_1256 () Bool (or .def_1215 .def_1255))
(define-fun .def_1209 () Bool (and param_e7 .def_1203))
(define-fun .def_1210 () Bool (and .def_957 .def_1209))
(define-fun .def_1211 () Bool (and .def_937 .def_1210))
(define-fun .def_1257 () Bool (or .def_1211 .def_1256))
(define-fun .def_1207 () Bool (and param_e8 .def_1204))
(define-fun .def_1208 () Bool (and .def_937 .def_1207))
(define-fun .def_1258 () Bool (or .def_1208 .def_1257))
(define-fun .def_1206 () Bool (and param_e9 .def_1205))
(define-fun .def_1259 () Bool (or .def_1206 .def_1258))
(define-fun .def_1260 () Bool (= call_excludes9.excludes .def_1259))
(define-fun .def_1197 () Bool (= call_illinois.flby4 call_illinois.shared))
(define-fun .def_1195 () Bool (= call_illinois.flby3 call_illinois.exclusive))
(define-fun .def_1193 () Bool (= call_illinois.flby2 call_illinois.dirty))
(define-fun .def_1191 () Bool (= call_illinois.flby call_illinois.invalid))
(define-fun .def_1187 () Bool (= call_illinois.ite11 call_illinois.ite8))
(define-fun .def_1188 () Bool (or .def_957 .def_1187))
(define-fun .def_1184 () Bool (= call_illinois.ite10 call_illinois.ite11))
(define-fun .def_1185 () Bool (or param_e8 .def_1184))
(define-fun .def_1189 () Bool (and .def_1185 .def_1188))
(define-fun .def_1180 () Bool (= call_illinois.ite12 call_illinois.ite7))
(define-fun .def_1181 () Bool (or .def_950 .def_1180))
(define-fun .def_1177 () Bool (= call_illinois.ite12 call_illinois.ite11))
(define-fun .def_1178 () Bool (or param_e7 .def_1177))
(define-fun .def_1182 () Bool (and .def_1178 .def_1181))
(define-fun .def_1172 () Bool (= call_illinois.ite43 call_illinois.ite44))
(define-fun .def_1173 () Bool (or param_e6 .def_1172))
(define-fun .def_1169 () Bool (= call_illinois.ite41 call_illinois.ite44))
(define-fun .def_1170 () Bool (or .def_1154 .def_1169))
(define-fun .def_1166 () Bool (= call_illinois.ite33 call_illinois.ite34))
(define-fun .def_1167 () Bool (or param_e6 .def_1166))
(define-fun .def_1163 () Bool (= call_illinois.ite31 call_illinois.ite34))
(define-fun .def_1164 () Bool (or .def_1154 .def_1163))
(define-fun .def_1160 () Bool (= call_illinois.ite23 call_illinois.ite24))
(define-fun .def_1161 () Bool (or param_e6 .def_1160))
(define-fun .def_1157 () Bool (= call_illinois.ite21 call_illinois.ite24))
(define-fun .def_1158 () Bool (or .def_1154 .def_1157))
(define-fun .def_1153 () Bool (= call_illinois.ite13 call_illinois.ite6))
(define-fun .def_1155 () Bool (or .def_1153 .def_1154))
(define-fun .def_1149 () Bool (= call_illinois.ite13 call_illinois.ite12))
(define-fun .def_1151 () Bool (or .def_1149 param_e6))
(define-fun .def_1156 () Bool (and .def_1151 .def_1155))
(define-fun .def_1159 () Bool (and .def_1156 .def_1158))
(define-fun .def_1162 () Bool (and .def_1159 .def_1161))
(define-fun .def_1165 () Bool (and .def_1162 .def_1164))
(define-fun .def_1168 () Bool (and .def_1165 .def_1167))
(define-fun .def_1171 () Bool (and .def_1168 .def_1170))
(define-fun .def_1174 () Bool (and .def_1171 .def_1173))
(define-fun .def_1144 () Bool (= call_illinois.ite45 call_illinois.ite44))
(define-fun .def_1145 () Bool (or param_e5 .def_1144))
(define-fun .def_1140 () Bool (= call_illinois.ite40 call_illinois.ite45))
(define-fun .def_1141 () Bool (or .def_1129 .def_1140))
(define-fun .def_1137 () Bool (= call_illinois.ite25 call_illinois.ite24))
(define-fun .def_1138 () Bool (or param_e5 .def_1137))
(define-fun .def_1133 () Bool (= call_illinois.ite25 call_illinois.ite20))
(define-fun .def_1134 () Bool (or .def_1129 .def_1133))
(define-fun .def_1128 () Bool (= call_illinois.ite14 call_illinois.ite5))
(define-fun .def_1130 () Bool (or .def_1128 .def_1129))
(define-fun .def_1124 () Bool (= call_illinois.ite14 call_illinois.ite13))
(define-fun .def_1126 () Bool (or .def_1124 param_e5))
(define-fun .def_1131 () Bool (and .def_1126 .def_1130))
(define-fun .def_1135 () Bool (and .def_1131 .def_1134))
(define-fun .def_1139 () Bool (and .def_1135 .def_1138))
(define-fun .def_1142 () Bool (and .def_1139 .def_1141))
(define-fun .def_1146 () Bool (and .def_1142 .def_1145))
(define-fun .def_1119 () Bool (= call_illinois.ite35 call_illinois.ite34))
(define-fun .def_1120 () Bool (or param_e4 .def_1119))
(define-fun .def_1115 () Bool (= call_illinois.ite35 call_illinois.ite30))
(define-fun .def_1116 () Bool (or .def_1111 .def_1115))
(define-fun .def_1110 () Bool (= call_illinois.ite26 call_illinois.ite19))
(define-fun .def_1112 () Bool (or .def_1110 .def_1111))
(define-fun .def_1106 () Bool (= call_illinois.ite26 call_illinois.ite25))
(define-fun .def_1108 () Bool (or .def_1106 param_e4))
(define-fun .def_1113 () Bool (and .def_1108 .def_1112))
(define-fun .def_1117 () Bool (and .def_1113 .def_1116))
(define-fun .def_1121 () Bool (and .def_1117 .def_1120))
(define-fun .def_1101 () Bool (= call_illinois.ite46 call_illinois.ite45))
(define-fun .def_1102 () Bool (or param_e3 .def_1101))
(define-fun .def_1097 () Bool (= call_illinois.ite46 call_illinois.ite39))
(define-fun .def_1098 () Bool (or .def_1085 .def_1097))
(define-fun .def_1093 () Bool (= call_illinois.ite36 call_illinois.ite35))
(define-fun .def_1094 () Bool (or param_e3 .def_1093))
(define-fun .def_1089 () Bool (= call_illinois.ite36 call_illinois.ite29))
(define-fun .def_1090 () Bool (or .def_1085 .def_1089))
(define-fun .def_1084 () Bool (= call_illinois.ite15 call_illinois.ite4))
(define-fun .def_1086 () Bool (or .def_1084 .def_1085))
(define-fun .def_1080 () Bool (= call_illinois.ite15 call_illinois.ite14))
(define-fun .def_1082 () Bool (or .def_1080 param_e3))
(define-fun .def_1087 () Bool (and .def_1082 .def_1086))
(define-fun .def_1091 () Bool (and .def_1087 .def_1090))
(define-fun .def_1095 () Bool (and .def_1091 .def_1094))
(define-fun .def_1099 () Bool (and .def_1095 .def_1098))
(define-fun .def_1103 () Bool (and .def_1099 .def_1102))
(define-fun .def_1075 () Bool (= call_illinois.ite47 call_illinois.ite46))
(define-fun .def_1076 () Bool (or param_e2 .def_1075))
(define-fun .def_1071 () Bool (= call_illinois.ite38 call_illinois.ite47))
(define-fun .def_1072 () Bool (or .def_1057 .def_1071))
(define-fun .def_1066 () Bool (= call_illinois.ite27 call_illinois.ite26))
(define-fun .def_1067 () Bool (or param_e2 .def_1066))
(define-fun .def_1062 () Bool (= call_illinois.ite18 call_illinois.ite27))
(define-fun .def_1063 () Bool (or .def_1057 .def_1062))
(define-fun .def_1056 () Bool (= call_illinois.ite16 call_illinois.ite3))
(define-fun .def_1058 () Bool (or .def_1056 .def_1057))
(define-fun .def_1052 () Bool (= call_illinois.ite16 call_illinois.ite15))
(define-fun .def_1054 () Bool (or .def_1052 param_e2))
(define-fun .def_1059 () Bool (and .def_1054 .def_1058))
(define-fun .def_1064 () Bool (and .def_1059 .def_1063))
(define-fun .def_1068 () Bool (and .def_1064 .def_1067))
(define-fun .def_1073 () Bool (and .def_1068 .def_1072))
(define-fun .def_1077 () Bool (and .def_1073 .def_1076))
(define-fun .def_1047 () Bool (= call_illinois.ite37 call_illinois.ite36))
(define-fun .def_1048 () Bool (or param_e1 .def_1047))
(define-fun .def_1043 () Bool (= call_illinois.ite28 call_illinois.ite37))
(define-fun .def_1044 () Bool (or .def_1038 .def_1043))
(define-fun .def_1037 () Bool (= call_illinois.ite17 call_illinois.ite2))
(define-fun .def_1039 () Bool (or .def_1037 .def_1038))
(define-fun .def_1033 () Bool (= call_illinois.ite17 call_illinois.ite16))
(define-fun .def_1035 () Bool (or .def_1033 param_e1))
(define-fun .def_1040 () Bool (and .def_1035 .def_1039))
(define-fun .def_1045 () Bool (and .def_1040 .def_1044))
(define-fun .def_1049 () Bool (and .def_1045 .def_1048))
(define-fun .def_1027 () Bool (= call_illinois.ite param_init_invalid))
(define-fun .def_1022 () Bool (<= param_init_invalid 0))
(define-fun .def_1028 () Bool (or .def_1022 .def_1027))
(define-fun .def_1024 () Int (+ call_illinois.ite param_init_invalid))
(define-fun .def_1025 () Bool (= .def_1024 1))
(define-fun .def_1023 () Bool (not .def_1022))
(define-fun .def_1026 () Bool (or .def_1023 .def_1025))
(define-fun .def_1029 () Bool (and .def_1026 .def_1028))
(define-fun .def_1019 () Bool (= env call_Sofar.Sofar))
(define-fun .def_1016 () Bool (= shared call_illinois.shared))
(define-fun .def_1012 () Bool (= exclusive call_illinois.exclusive))
(define-fun .def_1008 () Bool (= dirty call_illinois.dirty))
(define-fun .def_1004 () Bool (= invalid call_illinois.invalid))
(define-fun .def_999 () Bool (not env))
(define-fun .def_1000 () Bool (or flby .def_999))
(define-fun .def_1001 () Bool (= _OK_ .def_1000))
(define-fun .def_1005 () Bool (and .def_1001 .def_1004))
(define-fun .def_1009 () Bool (and .def_1005 .def_1008))
(define-fun .def_1013 () Bool (and .def_1009 .def_1012))
(define-fun .def_1017 () Bool (and .def_1013 .def_1016))
(define-fun .def_1020 () Bool (and .def_1017 .def_1019))
(define-fun .def_1030 () Bool (and .def_1020 .def_1029))
(define-fun .def_1050 () Bool (and .def_1030 .def_1049))
(define-fun .def_1078 () Bool (and .def_1050 .def_1077))
(define-fun .def_1104 () Bool (and .def_1078 .def_1103))
(define-fun .def_1122 () Bool (and .def_1104 .def_1121))
(define-fun .def_1147 () Bool (and .def_1122 .def_1146))
(define-fun .def_1175 () Bool (and .def_1147 .def_1174))
(define-fun .def_1183 () Bool (and .def_1175 .def_1182))
(define-fun .def_1190 () Bool (and .def_1183 .def_1189))
(define-fun .def_1192 () Bool (and .def_1190 .def_1191))
(define-fun .def_1194 () Bool (and .def_1192 .def_1193))
(define-fun .def_1196 () Bool (and .def_1194 .def_1195))
(define-fun .def_1198 () Bool (and .def_1196 .def_1197))
(define-fun .def_1261 () Bool (and .def_1198 .def_1260))
(define-fun .def_1263 () Bool (and .def_1261 .def_1262))
(define-fun .def_995 () Bool (= call_excludes9.excludes call_Sofar.flby))
(define-fun .def_991 () Bool (= call_illinois.flby4 0))
(define-fun .def_988 () Bool (= call_illinois.flby3 0))
(define-fun .def_985 () Bool (= call_illinois.flby2 0))
(define-fun .def_982 () Bool (= call_illinois.ite call_illinois.flby))
(define-fun .def_976 () Bool (= call_illinois.ite41 0))
(define-fun .def_969 () Bool (not call_illinois.g6))
(define-fun .def_977 () Bool (or .def_969 .def_976))
(define-fun .def_972 () Bool (= call_illinois.ite21 1))
(define-fun .def_973 () Bool (or .def_969 .def_972))
(define-fun .def_967 () Bool (= call_illinois.ite31 0))
(define-fun .def_970 () Bool (or .def_967 .def_969))
(define-fun .def_974 () Bool (and .def_970 .def_973))
(define-fun .def_978 () Bool (and .def_974 .def_977))
(define-fun .def_963 () Bool (= call_illinois.ite40 0))
(define-fun .def_961 () Bool (not call_illinois.g5))
(define-fun .def_964 () Bool (or .def_961 .def_963))
(define-fun .def_955 () Bool (= call_illinois.ite42 call_illinois.ite43))
(define-fun .def_958 () Bool (or .def_955 .def_957))
(define-fun .def_948 () Bool (= call_illinois.ite22 call_illinois.ite23))
(define-fun .def_951 () Bool (or .def_948 .def_950))
(define-fun .def_941 () Bool (= call_illinois.ite9 call_illinois.ite10))
(define-fun .def_942 () Bool (or .def_937 .def_941))
(define-fun .def_935 () Bool (= call_illinois.ite32 call_illinois.ite33))
(define-fun .def_938 () Bool (or .def_935 .def_937))
(define-fun .def_943 () Bool (and .def_938 .def_942))
(define-fun .def_945 () Bool (and .def_943 flby))
(define-fun .def_952 () Bool (and .def_945 .def_951))
(define-fun .def_959 () Bool (and .def_952 .def_958))
(define-fun .def_965 () Bool (and .def_959 .def_964))
(define-fun .def_979 () Bool (and .def_965 .def_978))
(define-fun .def_983 () Bool (and .def_979 .def_982))
(define-fun .def_986 () Bool (and .def_983 .def_985))
(define-fun .def_989 () Bool (and .def_986 .def_988))
(define-fun .def_992 () Bool (and .def_989 .def_991))
(define-fun .def_996 () Bool (and .def_992 .def_995))
(define-fun .def_1264 () Bool (and .def_996 .def_1263))
(assert .def_1264)
